Minimize
 obj: 0
Subject To
 c1:  4.0 x1 - 3.0 x2 - 2.0 x3 + y4 + 2.0 y5 <= 13.0
 c2: - 3.0 x1 + 2.0 x2 - x3 + 2.0 y4 + 3.0 y5 <= -9.0
Bounds
 x1 >= 0.0
 0.0 <= x2 <= 3.0
 1.0 <= x3 <= 5.0
 2.0 <= y4 <= 4.0
 y5 >= 0.0
End
